21 3
16 44 21 62 44 23 14 58 78 81 52 53 16 30 27 53 81 52 99 41 30
5 32 10 43 29 9 5 25 33 11 7 10 47 14 13 6 23 32 41 35 21
35 7 24 26 38 35 18 43 45 38 41 25 5 30 46 37 32 48 39 45 47
43 36 38 47 31 28 37 7 46 16 10 36 47 21 15 26 26 40 30 9 34
180 281 249
